/*********************************************
 * OPL 20.1.0.0 Data
 * Author: gunjan
 * Creation Date: Oct 18, 2021 at 8:36:24 PM
 *********************************************/
nbSites = 16;
nbVehicles = 5;
capacity = 90;
siteData = [
 <0 30 40>
 <7 37 52>
 <30 49 49>
 <16 52 64>
 <9 20 26>
 <21 40 30>
 <15 21 47>
 <19 17 63>
 <23 31 62>
 <11 52 33>
 <5 51 21>
 <19 42 41>
 <29 31 32>
 <23 5 25>
 <21 12 42>
 <10 36 16>
];